11
2147483647 21 37 24 49 25 8 22 98 39 29 
21 2147483647 23 66 40 43 15 99 44 37 59 
37 23 2147483647 33 22 20 46 83 41 46 30 
24 66 33 2147483647 57 26 69 19 96 80 3 
49 40 22 57 2147483647 68 4 49 94 37 8 
25 43 20 26 68 2147483647 82 22 79 55 50 
8 15 46 69 4 82 2147483647 78 6 48 53 
22 99 83 19 49 22 78 2147483647 16 85 36 
98 44 41 96 94 79 6 16 2147483647 33 72 
39 37 46 80 37 55 48 85 33 2147483647 40 
29 59 30 3 8 50 53 36 72 40 2147483647 
